unsat
(define-fun inv ((s Int) (i Int)) Bool (or (and (= s 0) (= i 1)) (and (= s 1) (= i 2)) (and (= s 8) (= i 9)) (and (= s 2) (= i 3)) (and (= s 3) (= i 4)) (and (= s 4) (= i 5)) (and (= s 5) (= i 6)) (and (= s 6) (= i 7)) (and (= s 7) (= i 8))))
0.01user 0.00system 0:00.02elapsed 96%CPU (0avgtext+0avgdata 25012maxresident)k
8inputs+8outputs (0major+1046minor)pagefaults 0swaps
